NAME : instances/clustered-diverse-tsp/instance-22.tsp
COMMENT : No Comment
TYPE : TSP
DIMENSION: 50
EDGE_WEIGHT_TYPE : EUC_2D
NODE_COORD_SECTION
1 1797 265 
2 115 1554 
3 916 1433 
4 692 569 
5 874 1387 
6 921 1393 
7 1917 382 
8 1801 290 
9 643 436 
10 257 527 
11 1803 408 
12 319 510 
13 1862 337 
14 874 1379 
15 315 1718 
16 1693 1435 
17 275 1397 
18 1945 414 
19 710 583 
20 850 665 
21 120 1052 
22 1865 341 
23 889 1433 
24 753 579 
25 127 1411 
26 828 1306 
27 2032 1240 
28 1931 1260 
29 692 529 
30 1739 1329 
31 1995 1348 
32 732 574 
33 1856 365 
34 891 1482 
35 662 551 
36 1858 323 
37 1885 366 
38 1801 338 
39 882 1461 
40 132 993 
41 120 1429 
42 1731 1304 
43 653 559 
44 1913 1267 
45 1845 407 
46 1896 317 
47 740 693 
48 343 1755 
49 1945 1192 
50 695 557 
EOF
